(set-info :smt-lib-version 2.6)
(set-logic UFLIA)
(set-info :source |Benchmarks from the paper: "Extending Sledgehammer with SMT Solvers" by Jasmin Blanchette, Sascha Bohme, and Lawrence C. Paulson, CADE 2011.  Translated to SMT2 by Andrew Reynolds and Morgan Deters.|)
(set-info :category "industrial")
(set-info :status unknown)
(declare-sort S1 0)
(declare-sort S2 0)
(declare-sort S3 0)
(declare-sort S4 0)
(declare-sort S5 0)
(declare-sort S6 0)
(declare-sort S7 0)
(declare-sort S8 0)
(declare-sort S9 0)
(declare-sort S10 0)
(declare-sort S11 0)
(declare-sort S12 0)
(declare-sort S13 0)
(declare-sort S14 0)
(declare-sort S15 0)
(declare-sort S16 0)
(declare-sort S17 0)
(declare-sort S18 0)
(declare-sort S19 0)
(declare-sort S20 0)
(declare-sort S21 0)
(declare-sort S22 0)
(declare-sort S23 0)
(declare-sort S24 0)
(declare-sort S25 0)
(declare-sort S26 0)
(declare-sort S27 0)
(declare-sort S28 0)
(declare-sort S29 0)
(declare-sort S30 0)
(declare-sort S31 0)
(declare-sort S32 0)
(declare-sort S33 0)
(declare-sort S34 0)
(declare-sort S35 0)
(declare-sort S36 0)
(declare-sort S37 0)
(declare-sort S38 0)
(declare-sort S39 0)
(declare-sort S40 0)
(declare-sort S41 0)
(declare-sort S42 0)
(declare-sort S43 0)
(declare-sort S44 0)
(declare-sort S45 0)
(declare-sort S46 0)
(declare-sort S47 0)
(declare-sort S48 0)
(declare-sort S49 0)
(declare-sort S50 0)
(declare-sort S51 0)
(declare-sort S52 0)
(declare-sort S53 0)
(declare-sort S54 0)
(declare-sort S55 0)
(declare-sort S56 0)
(declare-sort S57 0)
(declare-sort S58 0)
(declare-sort S59 0)
(declare-sort S60 0)
(declare-sort S61 0)
(declare-sort S62 0)
(declare-sort S63 0)
(declare-sort S64 0)
(declare-sort S65 0)
(declare-fun f1 () S1)
(declare-fun f2 () S1)
(declare-fun f3 (S4 S3) S1)
(declare-fun f4 (S5 S2) S4)
(declare-fun f5 () S5)
(declare-fun f6 () S3)
(declare-fun f7 () S5)
(declare-fun f8 (S6 S7) S3)
(declare-fun f9 (S8 S9) S6)
(declare-fun f10 (S10 S3) S8)
(declare-fun f11 () S10)
(declare-fun f12 (S11 S12) S9)
(declare-fun f13 () S11)
(declare-fun f14 () S12)
(declare-fun f15 (S13 S3) S7)
(declare-fun f16 () S13)
(declare-fun f17 (S14 S15) S1)
(declare-fun f18 (S16 S14) S14)
(declare-fun f19 () S16)
(declare-fun f20 (S17 S15) S16)
(declare-fun f21 () S17)
(declare-fun f22 () S14)
(declare-fun f23 (S18 S15) S14)
(declare-fun f24 () S18)
(declare-fun f25 () S18)
(declare-fun f26 () S17)
(declare-fun f27 (S19 S14) S1)
(declare-fun f28 (S20 S15) S19)
(declare-fun f29 () S20)
(declare-fun f30 () S17)
(declare-fun f31 () S17)
(declare-fun f32 () S17)
(declare-fun f33 (S21 S3) S5)
(declare-fun f34 () S21)
(declare-fun f35 (S22 S2) S5)
(declare-fun f36 (S23 S5) S22)
(declare-fun f37 () S23)
(declare-fun f38 (S24 S5) S5)
(declare-fun f39 (S25 S5) S24)
(declare-fun f40 () S25)
(declare-fun f41 (S26 S4) S5)
(declare-fun f42 (S27 S5) S26)
(declare-fun f43 () S27)
(declare-fun f44 (S28 S1) S24)
(declare-fun f45 () S28)
(declare-fun f46 (S29 S15) S18)
(declare-fun f47 (S30 S1) S29)
(declare-fun f48 () S30)
(declare-fun f49 (S31 S5) S21)
(declare-fun f50 () S31)
(declare-fun f51 (S32 S12) S21)
(declare-fun f52 (S33 S5) S32)
(declare-fun f53 () S33)
(declare-fun f54 (S34 S12) S7)
(declare-fun f55 (S35 S3) S34)
(declare-fun f56 () S35)
(declare-fun f57 (S36 S13) S5)
(declare-fun f58 (S37 S9) S36)
(declare-fun f59 (S38 S5) S37)
(declare-fun f60 () S38)
(declare-fun f61 (S39 S3) S36)
(declare-fun f62 (S40 S12) S39)
(declare-fun f63 (S41 S5) S40)
(declare-fun f64 () S41)
(declare-fun f65 () S5)
(declare-fun f66 () S5)
(declare-fun f67 () S14)
(declare-fun f68 (S42 S14) S19)
(declare-fun f69 () S42)
(declare-fun f70 () S14)
(declare-fun f71 (S43 S5) S15)
(declare-fun f72 (S44 S45) S43)
(declare-fun f73 (S46 S5) S44)
(declare-fun f74 () S46)
(declare-fun f75 (S47 S45) S45)
(declare-fun f76 (S48 S13) S47)
(declare-fun f77 (S49 S12) S48)
(declare-fun f78 () S49)
(declare-fun f79 () S45)
(declare-fun f80 () S5)
(declare-fun f81 () S16)
(declare-fun f82 (S50 S14) S15)
(declare-fun f83 () S50)
(declare-fun f84 (S52 S15) S7)
(declare-fun f85 (S53 S51) S52)
(declare-fun f86 () S53)
(declare-fun f87 (S54 Int) S7)
(declare-fun f88 () S54)
(declare-fun f89 (S55 S13) S45)
(declare-fun f90 (S56 S9) S55)
(declare-fun f91 () S56)
(declare-fun f92 () S1)
(declare-fun f93 () S45)
(declare-fun f94 (S57 S4) S47)
(declare-fun f95 () S57)
(declare-fun f96 (S58 S45) S47)
(declare-fun f97 () S58)
(declare-fun f98 (S59 S9) S7)
(declare-fun f99 () S59)
(declare-fun f100 () S50)
(declare-fun f101 () S52)
(declare-fun f102 (S60 S3) S4)
(declare-fun f103 (S61 S45) S60)
(declare-fun f104 () S61)
(declare-fun f105 (S62 S7) S4)
(declare-fun f106 (S63 S3) S62)
(declare-fun f107 (S64 S45) S63)
(declare-fun f108 () S64)
(declare-fun f109 (S65 S7) Int)
(declare-fun f110 () S65)
(assert (not (= f1 f2)))
(assert (forall ((?v0 S2) (?v1 S3)) (= (= (f3 (f4 f5 ?v0) ?v1) f1) (and (= f6 ?v1) (= (f3 (f4 f7 ?v0) (f8 (f9 (f10 f11 ?v1) (f12 f13 f14)) (f15 f16 ?v1))) f1)))))
(assert (forall ((?v0 S14) (?v1 S15)) (= (= (f17 (f18 f19 ?v0) ?v1) f1) (= ?v0 (f18 (f20 f21 ?v1) f22)))))
(assert (forall ((?v0 S15) (?v1 S15)) (= (= (f17 (f23 f24 ?v0) ?v1) f1) (= ?v0 ?v1))))
(assert (forall ((?v0 S15) (?v1 S15)) (= (= (f17 (f23 f25 ?v0) ?v1) f1) (= ?v1 ?v0))))
(assert (forall ((?v0 S15) (?v1 S14) (?v2 S15)) (= (= (f17 (f18 (f20 f26 ?v0) ?v1) ?v2) f1) (or (= ?v2 ?v0) (= (f27 (f28 f29 ?v2) ?v1) f1)))))
(assert (forall ((?v0 S15) (?v1 S14) (?v2 S15)) (= (= (f17 (f18 (f20 f30 ?v0) ?v1) ?v2) f1) (and (= ?v0 ?v2) (= (f17 ?v1 ?v2) f1)))))
(assert (forall ((?v0 S15) (?v1 S14) (?v2 S15)) (= (= (f17 (f18 (f20 f31 ?v0) ?v1) ?v2) f1) (and (= ?v2 ?v0) (= (f17 ?v1 ?v2) f1)))))
(assert (forall ((?v0 S15) (?v1 S14) (?v2 S15)) (= (= (f17 (f18 (f20 f32 ?v0) ?v1) ?v2) f1) (=> (not (= ?v2 ?v0)) (= (f17 ?v1 ?v2) f1)))))
(assert (forall ((?v0 S3) (?v1 S2) (?v2 S3)) (= (= (f3 (f4 (f33 f34 ?v0) ?v1) ?v2) f1) (= ?v2 ?v0))))
(assert (forall ((?v0 S5) (?v1 S2) (?v2 S2)) (= (f4 (f35 (f36 f37 ?v0) ?v1) ?v2) (f4 ?v0 ?v1))))
(assert (forall ((?v0 S5) (?v1 S5) (?v2 S2) (?v3 S3)) (= (= (f3 (f4 (f38 (f39 f40 ?v0) ?v1) ?v2) ?v3) f1) (or (= (f3 (f4 ?v0 ?v2) ?v3) f1) (= (f3 (f4 ?v1 ?v2) ?v3) f1)))))
(assert (forall ((?v0 S5) (?v1 S4) (?v2 S2) (?v3 S3)) (= (= (f3 (f4 (f41 (f42 f43 ?v0) ?v1) ?v2) ?v3) f1) (and (= (f3 (f4 ?v0 ?v2) ?v3) f1) (not (= (f3 ?v1 ?v3) f1))))))
(assert (forall ((?v0 S1) (?v1 S5) (?v2 S2) (?v3 S3)) (= (= (f3 (f4 (f38 (f44 f45 ?v0) ?v1) ?v2) ?v3) f1) (and (= (f3 (f4 ?v1 ?v2) ?v3) f1) (= ?v0 f1)))))
(assert (forall ((?v0 S1) (?v1 S15) (?v2 S15) (?v3 S15)) (let ((?v_0 (= ?v0 f1))) (= (= (f17 (f23 (f46 (f47 f48 ?v0) ?v1) ?v2) ?v3) f1) (and (=> (= ?v_0 true) (= ?v3 ?v1)) (=> (= ?v_0 false) (= ?v3 ?v2)))))))
(assert (forall ((?v0 S5) (?v1 S3) (?v2 S2) (?v3 S3)) (= (= (f3 (f4 (f33 (f49 f50 ?v0) ?v1) ?v2) ?v3) f1) (and (= ?v1 ?v3) (= (f3 (f4 ?v0 ?v2) ?v3) f1)))))
(assert (forall ((?v0 S5) (?v1 S12) (?v2 S3) (?v3 S2) (?v4 S3)) (= (= (f3 (f4 (f33 (f51 (f52 f53 ?v0) ?v1) ?v2) ?v3) ?v4) f1) (= (f3 (f4 ?v0 ?v3) (f8 (f9 (f10 f11 ?v4) (f12 f13 ?v1)) (f54 (f55 f56 ?v2) ?v1))) f1))))
(assert (forall ((?v0 S5) (?v1 S9) (?v2 S13) (?v3 S2) (?v4 S3)) (= (= (f3 (f4 (f57 (f58 (f59 f60 ?v0) ?v1) ?v2) ?v3) ?v4) f1) (= (f3 (f4 ?v0 ?v3) (f8 (f9 (f10 f11 ?v4) ?v1) (f15 ?v2 ?v4))) f1))))
(assert (forall ((?v0 S5) (?v1 S12) (?v2 S3) (?v3 S13) (?v4 S2) (?v5 S3)) (= (= (f3 (f4 (f57 (f61 (f62 (f63 f64 ?v0) ?v1) ?v2) ?v3) ?v4) ?v5) f1) (and (= ?v2 ?v5) (= (f3 (f4 ?v0 ?v4) (f8 (f9 (f10 f11 ?v5) (f12 f13 ?v1)) (f15 ?v3 ?v5))) f1)))))
(assert (forall ((?v0 S2) (?v1 S3)) (= (= (f3 (f4 f65 ?v0) ?v1) f1) false)))
(assert (forall ((?v0 S2) (?v1 S3)) (= (= (f3 (f4 f66 ?v0) ?v1) f1) true)))
(assert (forall ((?v0 S15)) (= (= (f17 f67 ?v0) f1) false)))
(assert (not (= (f27 (f68 f69 f70) (f18 (f20 f21 (f71 (f72 (f73 f74 f5) (f75 (f76 (f77 f78 f14) f16) f79)) f80)) f22)) f1)))
(assert (= (f27 (f68 f69 f70) (f18 (f20 f21 (f71 (f72 (f73 f74 f7) f79) f80)) f22)) f1))
(assert (forall ((?v0 S7) (?v1 S2) (?v2 S3)) (let ((?v_0 (f4 f80 ?v1))) (=> (= (f3 ?v_0 ?v2) f1) (= (f3 ?v_0 (f8 (f9 (f10 f11 ?v2) (f12 f13 f14)) ?v0)) f1)))))
(assert (forall ((?v0 S14)) (= (f27 (f68 f69 ?v0) f22) f1)))
(assert (forall ((?v0 S14) (?v1 S5) (?v2 S45)) (= (f27 (f68 f69 ?v0) (f18 (f20 f21 (f71 (f72 (f73 f74 ?v1) ?v2) f66)) f22)) f1)))
(assert (forall ((?v0 S14) (?v1 S45) (?v2 S5)) (= (f27 (f68 f69 ?v0) (f18 (f20 f21 (f71 (f72 (f73 f74 f65) ?v1) ?v2)) f22)) f1)))
(assert (forall ((?v0 S15)) (let ((?v_0 (f18 (f20 f21 ?v0) f22))) (= (f27 (f68 f69 ?v_0) ?v_0) f1))))
(assert (forall ((?v0 S5) (?v1 S45) (?v2 S5) (?v3 S5) (?v4 S45) (?v5 S5)) (= (= (f71 (f72 (f73 f74 ?v0) ?v1) ?v2) (f71 (f72 (f73 f74 ?v3) ?v4) ?v5)) (and (= ?v0 ?v3) (and (= ?v1 ?v4) (= ?v2 ?v5))))))
(assert (forall ((?v0 S14) (?v1 S14) (?v2 S14)) (let ((?v_0 (f68 f69 ?v2))) (=> (= (f27 (f68 f69 ?v0) ?v1) f1) (=> (= (f27 ?v_0 ?v0) f1) (= (f27 ?v_0 ?v1) f1))))))
(assert (forall ((?v0 S14) (?v1 S15) (?v2 S14)) (let ((?v_0 (f68 f69 ?v0)) (?v_1 (f20 f21 ?v1))) (=> (= (f27 ?v_0 (f18 ?v_1 f22)) f1) (=> (= (f27 ?v_0 ?v2) f1) (= (f27 ?v_0 (f18 ?v_1 ?v2)) f1))))))
(assert (forall ((?v0 S14) (?v1 S15) (?v2 S14)) (let ((?v_0 (f68 f69 ?v0)) (?v_1 (f20 f21 ?v1))) (=> (= (f27 ?v_0 (f18 ?v_1 ?v2)) f1) (and (= (f27 ?v_0 (f18 ?v_1 f22)) f1) (= (f27 ?v_0 ?v2) f1))))))
(assert (forall ((?v0 S14) (?v1 S5) (?v2 S45) (?v3 S5) (?v4 S5) (?v5 S5)) (let ((?v_0 (f68 f69 ?v0))) (=> (= (f27 ?v_0 (f18 (f20 f21 (f71 (f72 (f73 f74 ?v1) ?v2) ?v3)) f22)) f1) (=> (= (f27 ?v_0 (f18 (f20 f21 (f71 (f72 (f73 f74 ?v4) ?v2) ?v5)) f22)) f1) (= (f27 ?v_0 (f18 (f20 f21 (f71 (f72 (f73 f74 (f38 (f39 f40 ?v1) ?v4)) ?v2) (f38 (f39 f40 ?v3) ?v5))) f22)) f1))))))
(assert (forall ((?v0 S1) (?v1 S14) (?v2 S5) (?v3 S45) (?v4 S5)) (let ((?v_0 (f68 f69 ?v1))) (=> (=> (= ?v0 f1) (= (f27 ?v_0 (f18 (f20 f21 (f71 (f72 (f73 f74 ?v2) ?v3) ?v4)) f22)) f1)) (= (f27 ?v_0 (f18 (f20 f21 (f71 (f72 (f73 f74 (f38 (f44 f45 ?v0) ?v2)) ?v3) ?v4)) f22)) f1)))))
(assert (forall ((?v0 S14) (?v1 S5) (?v2 S45) (?v3 S5)) (=> (forall ((?v4 S3)) (= (f27 (f68 f69 ?v0) (f18 (f20 f21 (f71 (f72 (f73 f74 (f33 (f49 f50 ?v1) ?v4)) ?v2) ?v3)) f22)) f1)) (= (f27 (f68 f69 ?v0) (f18 (f20 f21 (f71 (f72 (f73 f74 ?v1) ?v2) ?v3)) f22)) f1))))
(assert (forall ((?v0 S5) (?v1 S14) (?v2 S45) (?v3 S5)) (=> (forall ((?v4 S2) (?v5 S3)) (=> (= (f3 (f4 ?v0 ?v4) ?v5) f1) (= (f27 (f68 f69 ?v1) (f18 (f20 f21 (f71 (f72 (f73 f74 (f33 f34 ?v5)) ?v2) (f35 (f36 f37 ?v3) ?v4))) f22)) f1))) (= (f27 (f68 f69 ?v1) (f18 (f20 f21 (f71 (f72 (f73 f74 ?v0) ?v2) ?v3)) f22)) f1))))
(assert (forall ((?v0 S14) (?v1 S5) (?v2 S45) (?v3 S5) (?v4 S5)) (let ((?v_0 (f68 f69 ?v0)) (?v_1 (f72 (f73 f74 ?v1) ?v2))) (=> (= (f27 ?v_0 (f18 (f20 f21 (f71 ?v_1 ?v3)) f22)) f1) (=> (forall ((?v5 S2) (?v6 S3)) (=> (= (f3 (f4 ?v3 ?v5) ?v6) f1) (= (f3 (f4 ?v4 ?v5) ?v6) f1))) (= (f27 ?v_0 (f18 (f20 f21 (f71 ?v_1 ?v4)) f22)) f1))))))
(assert (forall ((?v0 S14) (?v1 S5) (?v2 S45) (?v3 S5) (?v4 S5)) (let ((?v_0 (f68 f69 ?v0))) (=> (= (f27 ?v_0 (f18 (f20 f21 (f71 (f72 (f73 f74 ?v1) ?v2) ?v3)) f22)) f1) (=> (forall ((?v5 S2) (?v6 S3)) (=> (= (f3 (f4 ?v4 ?v5) ?v6) f1) (= (f3 (f4 ?v1 ?v5) ?v6) f1))) (= (f27 ?v_0 (f18 (f20 f21 (f71 (f72 (f73 f74 ?v4) ?v2) ?v3)) f22)) f1))))))
(assert (forall ((?v0 S14) (?v1 S5) (?v2 S45) (?v3 S5) (?v4 S12) (?v5 S3) (?v6 S13)) (let ((?v_0 (f68 f69 ?v0))) (=> (= (f27 ?v_0 (f18 (f20 f21 (f71 (f72 (f73 f74 ?v1) ?v2) (f33 (f51 (f52 f53 ?v3) ?v4) ?v5))) f22)) f1) (= (f27 ?v_0 (f18 (f20 f21 (f71 (f72 (f73 f74 (f57 (f61 (f62 (f63 f64 ?v1) ?v4) ?v5) ?v6)) (f75 (f76 (f77 f78 ?v4) ?v6) ?v2)) ?v3)) f22)) f1)))))
(assert (forall ((?v0 S15) (?v1 S15) (?v2 S14)) (let ((?v_0 (f28 f29 ?v0))) (=> (= (f27 ?v_0 (f18 (f20 f21 ?v1) ?v2)) f1) (=> (=> (= ?v0 ?v1) false) (=> (=> (= (f27 ?v_0 ?v2) f1) false) false))))))
(assert (forall ((?v0 S15) (?v1 S14) (?v2 S15)) (let ((?v_0 (f28 f29 ?v0))) (=> (=> (not (= (f27 ?v_0 ?v1) f1)) (= ?v0 ?v2)) (= (f27 ?v_0 (f18 (f20 f21 ?v2) ?v1)) f1)))))
(assert (forall ((?v0 S15)) (=> (= (f27 (f28 f29 ?v0) f22) f1) false)))
(assert (forall ((?v0 S14) (?v1 S5) (?v2 S45) (?v3 S5) (?v4 S5) (?v5 S5)) (let ((?v_0 (f68 f69 ?v0))) (=> (= (f27 ?v_0 (f18 (f20 f21 (f71 (f72 (f73 f74 ?v1) ?v2) ?v3)) f22)) f1) (=> (forall ((?v6 S2) (?v7 S3)) (=> (= (f3 (f4 ?v4 ?v6) ?v7) f1) (forall ((?v8 S3)) (=> (forall ((?v9 S2)) (=> (= (f3 (f4 ?v1 ?v9) ?v7) f1) (= (f3 (f4 ?v3 ?v9) ?v8) f1))) (= (f3 (f4 ?v5 ?v6) ?v8) f1))))) (= (f27 ?v_0 (f18 (f20 f21 (f71 (f72 (f73 f74 ?v4) ?v2) ?v5)) f22)) f1))))))
(assert (forall ((?v0 S15)) (= (f18 f81 (f23 f24 ?v0)) (f18 (f20 f21 ?v0) f22))))
(assert (forall ((?v0 S15)) (= (f18 f81 (f23 f25 ?v0)) (f18 (f20 f21 ?v0) f22))))
(assert (forall ((?v0 S15) (?v1 S14)) (= (f18 f81 (f18 (f20 f30 ?v0) ?v1)) (ite (= (f17 ?v1 ?v0) f1) (f18 (f20 f21 ?v0) f22) f22))))
(assert (forall ((?v0 S14) (?v1 S15)) (=> (= ?v0 f22) (not (= (f27 (f28 f29 ?v1) ?v0) f1)))))
(assert (forall ((?v0 S14)) (= (= (f18 f81 ?v0) f22) (forall ((?v1 S15)) (not (= (f17 ?v0 ?v1) f1))))))
(assert (forall ((?v0 S15)) (= (= (f27 (f28 f29 ?v0) f22) f1) false)))
(assert (forall ((?v0 S14)) (= (= f22 (f18 f81 ?v0)) (forall ((?v1 S15)) (not (= (f17 ?v0 ?v1) f1))))))
(assert (forall ((?v0 S14)) (= (forall ((?v1 S15)) (=> (= (f27 (f28 f29 ?v1) f22) f1) (= (f17 ?v0 ?v1) f1))) true)))
(assert (forall ((?v0 S14)) (= (exists ((?v1 S15)) (and (= (f27 (f28 f29 ?v1) f22) f1) (= (f17 ?v0 ?v1) f1))) false)))
(assert (forall ((?v0 S14)) (= (exists ((?v1 S15)) (= (f27 (f28 f29 ?v1) ?v0) f1)) (not (= ?v0 f22)))))
(assert (forall ((?v0 S14)) (= (forall ((?v1 S15)) (not (= (f27 (f28 f29 ?v1) ?v0) f1))) (= ?v0 f22))))
(assert (= f22 (f18 f81 f67)))
(assert (forall ((?v0 S15) (?v1 S14)) (=> (= (f27 (f28 f29 ?v0) ?v1) f1) (= (f18 (f20 f21 ?v0) ?v1) ?v1))))
(assert (forall ((?v0 S15) (?v1 S14) (?v2 S15)) (let ((?v_0 (f28 f29 ?v0))) (=> (= (f27 ?v_0 ?v1) f1) (= (f27 ?v_0 (f18 (f20 f21 ?v2) ?v1)) f1)))))
(assert (forall ((?v0 S15) (?v1 S14) (?v2 S14)) (let ((?v_0 (f28 f29 ?v0)) (?v_1 (f20 f21 ?v0))) (=> (not (= (f27 ?v_0 ?v1) f1)) (=> (not (= (f27 ?v_0 ?v2) f1)) (= (= (f18 ?v_1 ?v1) (f18 ?v_1 ?v2)) (= ?v1 ?v2)))))))
(assert (forall ((?v0 S15) (?v1 S14) (?v2 S15)) (= (= (f17 (f18 (f20 f21 ?v0) ?v1) ?v2) f1) (or (= ?v0 ?v2) (= (f17 ?v1 ?v2) f1)))))
(assert (forall ((?v0 S15) (?v1 S15) (?v2 S14)) (let ((?v_0 (f28 f29 ?v0))) (= (= (f27 ?v_0 (f18 (f20 f21 ?v1) ?v2)) f1) (or (= ?v0 ?v1) (= (f27 ?v_0 ?v2) f1))))))
(assert (forall ((?v0 S15) (?v1 S15) (?v2 S14)) (let ((?v_1 (f20 f21 ?v0)) (?v_0 (f20 f21 ?v1))) (= (f18 ?v_1 (f18 ?v_0 ?v2)) (f18 ?v_0 (f18 ?v_1 ?v2))))))
(assert (forall ((?v0 S15) (?v1 S14)) (let ((?v_0 (f20 f21 ?v0))) (let ((?v_1 (f18 ?v_0 ?v1))) (= (f18 ?v_0 ?v_1) ?v_1)))))
(assert (forall ((?v0 S15) (?v1 S14)) (= (f18 (f20 f21 ?v0) (f18 f81 ?v1)) (f18 f81 (f18 (f20 f32 ?v0) ?v1)))))
(assert (forall ((?v0 S15) (?v1 S14)) (= (f18 (f20 f21 ?v0) ?v1) (f18 f81 (f18 (f20 f26 ?v0) ?v1)))))
(assert (forall ((?v0 S15) (?v1 S14)) (= (f27 (f28 f29 ?v0) (f18 (f20 f21 ?v0) ?v1)) f1)))
(assert (forall ((?v0 S15) (?v1 S14)) (= (f18 (f20 f21 ?v0) ?v1) (f18 f81 (f18 (f20 f26 ?v0) ?v1)))))
(assert (forall ((?v0 S15) (?v1 S15)) (=> (= (f18 (f20 f21 ?v0) f22) (f18 (f20 f21 ?v1) f22)) (= ?v0 ?v1))))
(assert (forall ((?v0 S15) (?v1 S15)) (=> (= (f27 (f28 f29 ?v0) (f18 (f20 f21 ?v1) f22)) f1) (=> (=> (= ?v0 ?v1) false) false))))
(assert (forall ((?v0 S15) (?v1 S15) (?v2 S15) (?v3 S15)) (= (= (f18 (f20 f21 ?v0) (f18 (f20 f21 ?v1) f22)) (f18 (f20 f21 ?v2) (f18 (f20 f21 ?v3) f22))) (or (and (= ?v0 ?v2) (= ?v1 ?v3)) (and (= ?v0 ?v3) (= ?v1 ?v2))))))
(assert (forall ((?v0 S15) (?v1 S15)) (= (= (f27 (f28 f29 ?v0) (f18 (f20 f21 ?v1) f22)) f1) (= ?v0 ?v1))))
(assert (forall ((?v0 S15) (?v1 S14)) (not (= (f18 (f20 f21 ?v0) ?v1) f22))))
(assert (forall ((?v0 S15) (?v1 S14)) (not (= f22 (f18 (f20 f21 ?v0) ?v1)))))
(assert (forall ((?v0 S15) (?v1 S14)) (= (f18 f81 (f18 (f20 f31 ?v0) ?v1)) (ite (= (f17 ?v1 ?v0) f1) (f18 (f20 f21 ?v0) f22) f22))))
(assert (forall ((?v0 S15)) (= (f82 f83 (f18 (f20 f21 ?v0) f22)) ?v0)))
(assert (forall ((?v0 S51) (?v1 S5) (?v2 S45) (?v3 S5)) (= (f84 (f85 f86 ?v0) (f71 (f72 (f73 f74 ?v1) ?v2) ?v3)) (f87 f88 0))))
(assert (forall ((?v0 S14) (?v1 S5) (?v2 S9) (?v3 S13)) (= (f27 (f68 f69 ?v0) (f18 (f20 f21 (f71 (f72 (f73 f74 (f57 (f58 (f59 f60 ?v1) ?v2) ?v3)) (f89 (f90 f91 ?v2) ?v3)) ?v1)) f22)) f1)))
(assert (forall ((?v0 S15)) (= (= (f17 f22 ?v0) f1) (= f92 f1))))
(assert (forall ((?v0 S15)) (= (= (f17 f22 ?v0) f1) (= f92 f1))))
(assert (forall ((?v0 S14) (?v1 S5)) (= (f27 (f68 f69 ?v0) (f18 (f20 f21 (f71 (f72 (f73 f74 ?v1) f93) ?v1)) f22)) f1)))
(assert (forall ((?v0 S14) (?v1 S5) (?v2 S4) (?v3 S45)) (= (f27 (f68 f69 ?v0) (f18 (f20 f21 (f71 (f72 (f73 f74 (f41 (f42 f43 ?v1) ?v2)) (f75 (f94 f95 ?v2) ?v3)) ?v1)) f22)) f1)))
(assert (forall ((?v0 S14) (?v1 S5) (?v2 S45) (?v3 S5) (?v4 S45) (?v5 S5)) (let ((?v_0 (f68 f69 ?v0)) (?v_1 (f73 f74 ?v1))) (=> (= (f27 ?v_0 (f18 (f20 f21 (f71 (f72 ?v_1 ?v2) ?v3)) f22)) f1) (=> (= (f27 ?v_0 (f18 (f20 f21 (f71 (f72 (f73 f74 ?v3) ?v4) ?v5)) f22)) f1) (= (f27 ?v_0 (f18 (f20 f21 (f71 (f72 ?v_1 (f75 (f96 f97 ?v2) ?v4)) ?v5)) f22)) f1))))))
(assert (forall ((?v0 S5) (?v1 S5) (?v2 S14)) (=> (forall ((?v3 S2) (?v4 S3)) (=> (= (f3 (f4 ?v0 ?v3) ?v4) f1) (= (f3 (f4 ?v1 ?v3) ?v4) f1))) (= (f27 (f68 f69 ?v2) (f18 (f20 f21 (f71 (f72 (f73 f74 ?v0) f93) ?v1)) f22)) f1))))
(assert (forall ((?v0 S45) (?v1 S45)) (not (= (f75 (f96 f97 ?v0) ?v1) f93))))
(assert (forall ((?v0 S9) (?v1 S13)) (not (= (f89 (f90 f91 ?v0) ?v1) f93))))
(assert (forall ((?v0 S45) (?v1 S45)) (not (= f93 (f75 (f96 f97 ?v0) ?v1)))))
(assert (forall ((?v0 S9) (?v1 S13)) (not (= f93 (f89 (f90 f91 ?v0) ?v1)))))
(assert (forall ((?v0 S12) (?v1 S13) (?v2 S45)) (not (= f93 (f75 (f76 (f77 f78 ?v0) ?v1) ?v2)))))
(assert (forall ((?v0 S12) (?v1 S13) (?v2 S45)) (not (= (f75 (f76 (f77 f78 ?v0) ?v1) ?v2) f93))))
(assert (forall ((?v0 S4) (?v1 S45) (?v2 S4) (?v3 S45)) (= (= (f75 (f94 f95 ?v0) ?v1) (f75 (f94 f95 ?v2) ?v3)) (and (= ?v0 ?v2) (= ?v1 ?v3)))))
(assert (forall ((?v0 S12) (?v1 S13) (?v2 S45) (?v3 S12) (?v4 S13) (?v5 S45)) (= (= (f75 (f76 (f77 f78 ?v0) ?v1) ?v2) (f75 (f76 (f77 f78 ?v3) ?v4) ?v5)) (and (= ?v0 ?v3) (and (= ?v1 ?v4) (= ?v2 ?v5))))))
(assert (forall ((?v0 S9) (?v1 S13) (?v2 S9) (?v3 S13)) (= (= (f89 (f90 f91 ?v0) ?v1) (f89 (f90 f91 ?v2) ?v3)) (and (= ?v0 ?v2) (= ?v1 ?v3)))))
(assert (forall ((?v0 S45) (?v1 S45) (?v2 S45) (?v3 S45)) (= (= (f75 (f96 f97 ?v0) ?v1) (f75 (f96 f97 ?v2) ?v3)) (and (= ?v0 ?v2) (= ?v1 ?v3)))))
(assert (forall ((?v0 S12) (?v1 S12)) (= (= (f12 f13 ?v0) (f12 f13 ?v1)) (= ?v0 ?v1))))
(assert (forall ((?v0 S12) (?v1 S13) (?v2 S45) (?v3 S4) (?v4 S45)) (not (= (f75 (f76 (f77 f78 ?v0) ?v1) ?v2) (f75 (f94 f95 ?v3) ?v4)))))
(assert (forall ((?v0 S4) (?v1 S45) (?v2 S12) (?v3 S13) (?v4 S45)) (not (= (f75 (f94 f95 ?v0) ?v1) (f75 (f76 (f77 f78 ?v2) ?v3) ?v4)))))
(assert (forall ((?v0 S9) (?v1 S13) (?v2 S4) (?v3 S45)) (not (= (f89 (f90 f91 ?v0) ?v1) (f75 (f94 f95 ?v2) ?v3)))))
(assert (forall ((?v0 S45) (?v1 S45) (?v2 S4) (?v3 S45)) (not (= (f75 (f96 f97 ?v0) ?v1) (f75 (f94 f95 ?v2) ?v3)))))
(assert (forall ((?v0 S15) (?v1 S14)) (= (= (f27 (f28 f29 ?v0) ?v1) f1) (= (f17 ?v1 ?v0) f1))))
(assert (forall ((?v0 S14)) (= (f18 f81 ?v0) ?v0)))
(assert (forall ((?v0 S4) (?v1 S45) (?v2 S9) (?v3 S13)) (not (= (f75 (f94 f95 ?v0) ?v1) (f89 (f90 f91 ?v2) ?v3)))))
(assert (forall ((?v0 S4) (?v1 S45) (?v2 S45) (?v3 S45)) (not (= (f75 (f94 f95 ?v0) ?v1) (f75 (f96 f97 ?v2) ?v3)))))
(assert (forall ((?v0 S4) (?v1 S45)) (not (= f93 (f75 (f94 f95 ?v0) ?v1)))))
(assert (forall ((?v0 S4) (?v1 S45)) (not (= (f75 (f94 f95 ?v0) ?v1) f93))))
(assert (forall ((?v0 S12) (?v1 S13) (?v2 S45) (?v3 S45) (?v4 S45)) (not (= (f75 (f76 (f77 f78 ?v0) ?v1) ?v2) (f75 (f96 f97 ?v3) ?v4)))))
(assert (forall ((?v0 S45) (?v1 S45) (?v2 S12) (?v3 S13) (?v4 S45)) (not (= (f75 (f96 f97 ?v0) ?v1) (f75 (f76 (f77 f78 ?v2) ?v3) ?v4)))))
(assert (forall ((?v0 S12) (?v1 S13) (?v2 S45) (?v3 S9) (?v4 S13)) (not (= (f75 (f76 (f77 f78 ?v0) ?v1) ?v2) (f89 (f90 f91 ?v3) ?v4)))))
(assert (forall ((?v0 S9) (?v1 S13) (?v2 S12) (?v3 S13) (?v4 S45)) (not (= (f89 (f90 f91 ?v0) ?v1) (f75 (f76 (f77 f78 ?v2) ?v3) ?v4)))))
(assert (forall ((?v0 S9) (?v1 S13) (?v2 S45) (?v3 S45)) (not (= (f89 (f90 f91 ?v0) ?v1) (f75 (f96 f97 ?v2) ?v3)))))
(assert (forall ((?v0 S45) (?v1 S45) (?v2 S9) (?v3 S13)) (not (= (f75 (f96 f97 ?v0) ?v1) (f89 (f90 f91 ?v2) ?v3)))))
(assert (forall ((?v0 S12)) (= (f98 f99 (f12 f13 ?v0)) (f87 f88 0))))
(assert (forall ((?v0 S14)) (= (f82 f83 ?v0) (f82 f100 (f18 f19 ?v0)))))
(assert (forall ((?v0 S5) (?v1 S45) (?v2 S5)) (= (f84 f101 (f71 (f72 (f73 f74 ?v0) ?v1) ?v2)) (f87 f88 0))))
(assert (forall ((?v0 S15)) (=> (forall ((?v1 S5) (?v2 S45) (?v3 S5)) (=> (= ?v0 (f71 (f72 (f73 f74 ?v1) ?v2) ?v3)) false)) false)))
(assert (forall ((?v0 S15) (?v1 S14)) (=> (= (f27 (f28 f29 ?v0) ?v1) f1) (=> (forall ((?v2 S14)) (=> (= ?v1 (f18 (f20 f21 ?v0) ?v2)) (=> (not (= (f27 (f28 f29 ?v0) ?v2) f1)) false))) false))))
(assert (forall ((?v0 S1) (?v1 S15) (?v2 S15)) (= (ite (= ?v0 f1) ?v1 ?v2) (f82 f100 (f23 (f46 (f47 f48 ?v0) ?v1) ?v2)))))
(assert (forall ((?v0 S15)) (= (f82 f100 (f23 f25 ?v0)) ?v0)))
(assert (forall ((?v0 S15)) (= (f82 f100 (f23 f24 ?v0)) ?v0)))
(assert (forall ((?v0 S15) (?v1 S14)) (=> (= (f27 (f28 f29 ?v0) ?v1) f1) (exists ((?v2 S14)) (and (= ?v1 (f18 (f20 f21 ?v0) ?v2)) (not (= (f27 (f28 f29 ?v0) ?v2) f1)))))))
(assert (forall ((?v0 S14)) (=> (forall ((?v1 S15)) (=> (= (f27 (f28 f29 ?v1) ?v0) f1) false)) (= ?v0 f22))))
(assert (forall ((?v0 S14) (?v1 S15)) (=> (= (f17 ?v0 ?v1) f1) (=> (forall ((?v2 S15)) (=> (= (f17 ?v0 ?v2) f1) (= ?v2 ?v1))) (= (f82 f100 ?v0) ?v1)))))
(assert (forall ((?v0 S14)) (=> (exists ((?v1 S15)) (and (= (f17 ?v0 ?v1) f1) (forall ((?v2 S15)) (=> (= (f17 ?v0 ?v2) f1) (= ?v2 ?v1))))) (= (f17 ?v0 (f82 f100 ?v0)) f1))))
(assert (forall ((?v0 S14) (?v1 S15)) (=> (exists ((?v2 S15)) (and (= (f17 ?v0 ?v2) f1) (forall ((?v3 S15)) (=> (= (f17 ?v0 ?v3) f1) (= ?v3 ?v2))))) (=> (= (f17 ?v0 ?v1) f1) (= (f82 f100 ?v0) ?v1)))))
(assert (forall ((?v0 S14) (?v1 S15)) (=> (= (f17 ?v0 ?v1) f1) (=> (forall ((?v2 S15)) (=> (= (f17 ?v0 ?v2) f1) (= ?v2 ?v1))) (= (f17 ?v0 (f82 f100 ?v0)) f1)))))
(assert (forall ((?v0 S45) (?v1 S3) (?v2 S12) (?v3 S13) (?v4 S3)) (let ((?v_0 (f12 f13 ?v2))) (=> (= (f3 (f102 (f103 f104 ?v0) (f8 (f9 (f10 f11 ?v1) ?v_0) (f15 ?v3 ?v1))) ?v4) f1) (= (f3 (f102 (f103 f104 (f75 (f76 (f77 f78 ?v2) ?v3) ?v0)) ?v1) (f8 (f9 (f10 f11 ?v4) ?v_0) (f54 (f55 f56 ?v1) ?v2))) f1)))))
(assert (forall ((?v0 S4) (?v1 S3) (?v2 S45)) (=> (not (= (f3 ?v0 ?v1) f1)) (= (f3 (f102 (f103 f104 (f75 (f94 f95 ?v0) ?v2)) ?v1) ?v1) f1))))
(assert (forall ((?v0 S4) (?v1 S3) (?v2 S45) (?v3 S3) (?v4 S3)) (let ((?v_0 (f103 f104 (f75 (f94 f95 ?v0) ?v2)))) (=> (= (f3 ?v0 ?v1) f1) (=> (= (f3 (f102 (f103 f104 ?v2) ?v1) ?v3) f1) (=> (= (f3 (f102 ?v_0 ?v3) ?v4) f1) (= (f3 (f102 ?v_0 ?v1) ?v4) f1)))))))
(assert (forall ((?v0 S45) (?v1 S3) (?v2 S3) (?v3 S45) (?v4 S3)) (=> (= (f3 (f102 (f103 f104 ?v0) ?v1) ?v2) f1) (=> (= (f3 (f102 (f103 f104 ?v3) ?v2) ?v4) f1) (= (f3 (f102 (f103 f104 (f75 (f96 f97 ?v0) ?v3)) ?v1) ?v4) f1)))))
(assert (forall ((?v0 S3)) (= (f3 (f102 (f103 f104 f93) ?v0) ?v0) f1)))
(assert (forall ((?v0 S3) (?v1 S3)) (=> (= (f3 (f102 (f103 f104 f93) ?v0) ?v1) f1) (=> (=> (= ?v1 ?v0) false) false))))
(assert (forall ((?v0 S9) (?v1 S13) (?v2 S3) (?v3 S3)) (=> (= (f3 (f102 (f103 f104 (f89 (f90 f91 ?v0) ?v1)) ?v2) ?v3) f1) (=> (=> (= ?v3 (f8 (f9 (f10 f11 ?v2) ?v0) (f15 ?v1 ?v2))) false) false))))
(assert (forall ((?v0 S9) (?v1 S13) (?v2 S3)) (= (f3 (f102 (f103 f104 (f89 (f90 f91 ?v0) ?v1)) ?v2) (f8 (f9 (f10 f11 ?v2) ?v0) (f15 ?v1 ?v2))) f1)))
(assert (forall ((?v0 S45) (?v1 S3) (?v2 S3) (?v3 S3)) (let ((?v_0 (f102 (f103 f104 ?v0) ?v1))) (=> (= (f3 ?v_0 ?v2) f1) (=> (= (f3 ?v_0 ?v3) f1) (= ?v3 ?v2))))))
(assert (forall ((?v0 S12) (?v1 S13) (?v2 S45) (?v3 S3) (?v4 S3)) (=> (= (f3 (f102 (f103 f104 (f75 (f76 (f77 f78 ?v0) ?v1) ?v2)) ?v3) ?v4) f1) (=> (forall ((?v5 S3)) (let ((?v_0 (f12 f13 ?v0))) (=> (= ?v4 (f8 (f9 (f10 f11 ?v5) ?v_0) (f54 (f55 f56 ?v3) ?v0))) (=> (= (f3 (f102 (f103 f104 ?v2) (f8 (f9 (f10 f11 ?v3) ?v_0) (f15 ?v1 ?v3))) ?v5) f1) false)))) false))))
(assert (forall ((?v0 S45) (?v1 S45) (?v2 S3) (?v3 S3)) (=> (= (f3 (f102 (f103 f104 (f75 (f96 f97 ?v0) ?v1)) ?v2) ?v3) f1) (=> (forall ((?v4 S3)) (=> (= (f3 (f102 (f103 f104 ?v0) ?v2) ?v4) f1) (=> (= (f3 (f102 (f103 f104 ?v1) ?v4) ?v3) f1) false))) false))))
(assert (forall ((?v0 S4) (?v1 S45) (?v2 S3) (?v3 S3)) (=> (= (f3 (f102 (f103 f104 (f75 (f94 f95 ?v0) ?v1)) ?v2) ?v3) f1) (=> (=> (= ?v3 ?v2) (=> (not (= (f3 ?v0 ?v2) f1)) false)) (=> (forall ((?v4 S3)) (=> (= (f3 ?v0 ?v2) f1) (=> (= (f3 (f102 (f103 f104 ?v1) ?v2) ?v4) f1) (=> (= (f3 (f102 (f103 f104 (f75 (f94 f95 ?v0) ?v1)) ?v4) ?v3) f1) false)))) false)))))
(assert (forall ((?v0 S45) (?v1 S3) (?v2 S12) (?v3 S13) (?v4 S7) (?v5 S3)) (let ((?v_0 (f12 f13 ?v2))) (=> (= (f3 (f105 (f106 (f107 f108 ?v0) (f8 (f9 (f10 f11 ?v1) ?v_0) (f15 ?v3 ?v1))) ?v4) ?v5) f1) (= (f3 (f105 (f106 (f107 f108 (f75 (f76 (f77 f78 ?v2) ?v3) ?v0)) ?v1) ?v4) (f8 (f9 (f10 f11 ?v5) ?v_0) (f54 (f55 f56 ?v1) ?v2))) f1)))))
(assert (forall ((?v0 S12) (?v1 S13) (?v2 S45) (?v3 S3) (?v4 S7) (?v5 S3)) (=> (= (f3 (f105 (f106 (f107 f108 (f75 (f76 (f77 f78 ?v0) ?v1) ?v2)) ?v3) ?v4) ?v5) f1) (=> (forall ((?v6 S3)) (let ((?v_0 (f12 f13 ?v0))) (=> (= ?v5 (f8 (f9 (f10 f11 ?v6) ?v_0) (f54 (f55 f56 ?v3) ?v0))) (=> (= (f3 (f105 (f106 (f107 f108 ?v2) (f8 (f9 (f10 f11 ?v3) ?v_0) (f15 ?v1 ?v3))) ?v4) ?v6) f1) false)))) false))))
(assert (forall ((?v0 S4) (?v1 S3) (?v2 S45) (?v3 S7) (?v4 S3) (?v5 S3)) (let ((?v_0 (f107 f108 (f75 (f94 f95 ?v0) ?v2)))) (=> (= (f3 ?v0 ?v1) f1) (=> (= (f3 (f105 (f106 (f107 f108 ?v2) ?v1) ?v3) ?v4) f1) (=> (= (f3 (f105 (f106 ?v_0 ?v4) ?v3) ?v5) f1) (= (f3 (f105 (f106 ?v_0 ?v1) ?v3) ?v5) f1)))))))
(assert (forall ((?v0 S4) (?v1 S3) (?v2 S45) (?v3 S7)) (=> (not (= (f3 ?v0 ?v1) f1)) (= (f3 (f105 (f106 (f107 f108 (f75 (f94 f95 ?v0) ?v2)) ?v1) ?v3) ?v1) f1))))
(assert (forall ((?v0 S45) (?v1 S3) (?v2 S7) (?v3 S3) (?v4 S45) (?v5 S3)) (=> (= (f3 (f105 (f106 (f107 f108 ?v0) ?v1) ?v2) ?v3) f1) (=> (= (f3 (f105 (f106 (f107 f108 ?v4) ?v3) ?v2) ?v5) f1) (= (f3 (f105 (f106 (f107 f108 (f75 (f96 f97 ?v0) ?v4)) ?v1) ?v2) ?v5) f1)))))
(assert (forall ((?v0 S3) (?v1 S7) (?v2 S3)) (=> (= (f3 (f105 (f106 (f107 f108 f93) ?v0) ?v1) ?v2) f1) (=> (=> (= ?v2 ?v0) false) false))))
(assert (forall ((?v0 S3) (?v1 S7)) (= (f3 (f105 (f106 (f107 f108 f93) ?v0) ?v1) ?v0) f1)))
(assert (forall ((?v0 S9) (?v1 S13) (?v2 S3) (?v3 S7)) (= (f3 (f105 (f106 (f107 f108 (f89 (f90 f91 ?v0) ?v1)) ?v2) ?v3) (f8 (f9 (f10 f11 ?v2) ?v0) (f15 ?v1 ?v2))) f1)))
(assert (forall ((?v0 S9) (?v1 S13) (?v2 S3) (?v3 S7) (?v4 S3)) (=> (= (f3 (f105 (f106 (f107 f108 (f89 (f90 f91 ?v0) ?v1)) ?v2) ?v3) ?v4) f1) (=> (=> (= ?v4 (f8 (f9 (f10 f11 ?v2) ?v0) (f15 ?v1 ?v2))) false) false))))
(assert (forall ((?v0 S7)) (= (f87 f88 (f109 f110 ?v0)) ?v0)))
(assert (forall ((?v0 Int)) (=> (<= 0 ?v0) (= (f109 f110 (f87 f88 ?v0)) ?v0))))
(assert (forall ((?v0 Int)) (=> (< ?v0 0) (= (f109 f110 (f87 f88 ?v0)) 0))))
(check-sat)
(exit)
